File : Instances/p66
Used 68s
33124

0 0 1 0 1 0 0 0 0 0 0 1 1 1 0 0 0 0 0 0 1 1 0 0 0 0 0 1 0 0 
27 12 21 27 2 12 21 27 27 27 4 11 13 13 11 11 13 20 27 27 27 21 2 2 13 27 27 12 4 2 4 4 4 21 27 12 20 20 21 21 11 20 12 4 20 4 13 21 4 20 27 21 21 21 20 12 11 20 27 11 4 2 11 20 13 11 2 20 12 12 27 12 4 20 13 13 20 2 20 21 13 2 20 12 4 13 4 2 27 11 11 12 11 11 2 13 11 12 2 11 11 21 12 11 4 2 4 27 27 13 4 4 27 12 12 20 11 11 20 20 20 11 11 4 4 21 2 11 4 2 11 21 12 20 13 20 13 13 11 20 12 27 12 11 11 2 21 21 27 12 27 2 13 2 13 11 2 21 13 13 13 27 13 2 2 27 2 4 13 21 13 20 12 20 4 2 27 20 4 20 2 21 21 12 12 20 11 13 27 21 2 21 12 4 11 12 11 21 13 4 
